Minimize
  obj: x0 + x1 + x2 + x3 + x4 + x5 + x6 + x7

Subject To
  c0: x0 + x1 + x3 + x4 + x6 = 54
  c1: x1 + x4 + x5 = 38
  c2: x0 + x2 + x3 + x4 + x6 = 56
  c3: x1 + x3 + x5 + x6 + x7 = 179
  c4: x0 + x4 + x7 = 176
  c5: x0 + x1 + x4 + x6 + x7 = 193
  c6: x1 + x3 + x5 + x6 + x7 = 179

Bounds
  x0 >= 0
  x1 >= 0
  x2 >= 0
  x3 >= 0
  x4 >= 0
  x5 >= 0
  x6 >= 0
  x7 >= 0

Generals
  x0 x1 x2 x3 x4 x5 x6 x7

End
